; benchmark generated from python API
(set-info :status unknown)
(declare-fun bool.b14 () Bool)
(declare-fun bool.b5 () Bool)
(declare-fun bool.b10 () Bool)
(declare-fun bool.b8 () Bool)
(declare-fun bool.b12 () Bool)
(declare-fun bool.b23 () Bool)
(declare-fun x4 () Real)
(declare-fun x5 () Real)
(declare-fun x3 () Real)
(declare-fun bool.b6 () Bool)
(declare-fun bool.b7 () Bool)
(declare-fun bool.b22 () Bool)
(assert
 (forall ((?lambda Real) )(let (($x19824 (and (and (not bool.b8) (not bool.b10)) (and (not bool.b5) (not bool.b14)))))
 (let (($x12895 (not bool.b12)))
 (let (($x14250 (and $x12895 $x19824)))
 (let (($x20073 (not (and (not bool.b5) bool.b23))))
 (let (($x14560 (and (not (<= (* 1.0 (+ x4 (* 20.0 ?lambda))) 4820.0)) (not (and $x20073 (not $x14250))))))
 (let (($x4331 (<= (* (- 1.0) (+ x5 (* 1.0 ?lambda))) (- 10.0))))
 (let ((?x6107 (+ x3 (* (/ 1.0 2.0) ?lambda))))
 (let ((?x12386 (* 1.0 ?x6107)))
 (let (($x21186 (<= ?x12386 0.0)))
 (let (($x11899 (and (<= (+ ?x12386 (* (/ 3.0 20.0) (+ x4 (* 20.0 ?lambda)))) 1200.0) (and $x4331 (and (<= ?x12386 20.0) (and (not bool.b23) $x14250))))))
 (let (($x16753 (not (<= (+ ?x12386 (* (/ 3.0 20.0) (+ x4 (* 20.0 ?lambda)))) 723.0))))
 (let (($x3257 (and (not (and (not $x21186) (not (and $x16753 $x11899)))) (not (and $x21186 (not (and $x4331 $x14560)))))))
 (let (($x4604 (not (and (not bool.b7) (not (and bool.b5 (not bool.b6)))))))
 (let (($x22588 (not bool.b22)))
 (let (($x15110 (and $x22588 (and $x4604 (not (and bool.b7 (not (and bool.b6 $x3257))))))))
 (let (($x20450 (exists ((?lambdaprime Real) )(! (let (($x22588 (not bool.b22)))
 (let (($x25448 (not (<= (* (- 1.0) (+ x3 (* (/ 1.0 2.0) ?lambdaprime))) (- 20.0)))))
 (let (($x17188 (and $x25448 (not (<= (* (- 1.0) (+ x4 (* 20.0 ?lambdaprime))) (- 4910.0))))))
 (let (($x6680 (and (not $x17188) (and $x22588 (and (not bool.b7) (and (not bool.b5) bool.b6))))))
 (let (($x9314 (and $x25448 (not (<= (* (- 1.0) (+ x4 (* 20.0 ?lambdaprime))) (- 4500.0))))))
 (let (($x17398 (and (not $x9314) (and $x22588 (and bool.b7 (and (not bool.b5) (not bool.b6)))))))
 (let (($x12288 (and $x25448 (not (<= (* (- 1.0) (+ x4 (* 20.0 ?lambdaprime))) (- 4100.0))))))
 (let (($x10741 (and (not $x12288) (and $x22588 (and (not bool.b7) (and (not bool.b5) (not bool.b6)))))))
 (let (($x633 (and (not (<= (* (- 1.0) (+ x5 (* 1.0 ?lambdaprime))) (- 10.0))) (and (and (not $x10741) (not $x17398)) (not $x6680)))))
 (and (and (<= 0.0 ?lambdaprime) (<= ?lambdaprime ?lambda)) (not $x633))))))))))) :qid k!27))
 ))
 (or (or $x20450 (< ?lambda 0.0)) (not $x15110)))))))))))))))))))
 )
(check-sat)
